# vtk DataFile Version 4.1
Laplace Equation Solution with Fluxes
ASCII
DATASET UNSTRUCTURED_GRID
 
POINTS 68 float
    0.500000    0.000000    0.000000
    1.000000    0.000000    0.000000
    1.000000    2.000000    0.000000
    0.000000    2.000000    0.000000
    0.000000    0.500000    0.000000
    0.000000    0.000000    0.000000
    0.666667    0.000000    0.000000
    0.833333    0.000000    0.000000
    1.000000    0.222222    0.000000
    1.000000    0.444444    0.000000
    1.000000    0.666667    0.000000
    1.000000    0.888889    0.000000
    1.000000    1.111111    0.000000
    1.000000    1.333333    0.000000
    1.000000    1.555556    0.000000
    1.000000    1.777778    0.000000
    0.800000    2.000000    0.000000
    0.600000    2.000000    0.000000
    0.400000    2.000000    0.000000
    0.200000    2.000000    0.000000
    0.000000    1.785714    0.000000
    0.000000    1.571429    0.000000
    0.000000    1.357143    0.000000
    0.000000    1.142857    0.000000
    0.000000    0.928571    0.000000
    0.000000    0.714286    0.000000
    0.191342    0.461940    0.000000
    0.353553    0.353553    0.000000
    0.461940    0.191342    0.000000
    0.507379    1.826123    0.000000
    0.184707    1.252151    0.000000
    0.367803    0.548273    0.000000
    0.774568    0.980668    0.000000
    0.801032    1.460185    0.000000
    0.527583    0.434998    0.000000
    0.554386    0.645451    0.000000
    0.374758    0.751481    0.000000
    0.663052    0.269192    0.000000
    0.185577    1.678571    0.000000
    0.704865    0.506514    0.000000
    0.573055    0.860510    0.000000
    0.381864    0.962215    0.000000
    0.571185    1.060083    0.000000
    0.783598    0.729179    0.000000
    0.735984    1.213429    0.000000
    0.586082    1.398741    0.000000
    0.608489    1.632634    0.000000
    0.444416    1.532007    0.000000
    0.374883    1.156688    0.000000
    0.172257    1.464927    0.000000
    0.185617    1.041622    0.000000
    0.700000    1.826795    0.000000
    0.192208    0.840131    0.000000
    0.305165    1.842732    0.000000
    0.827915    1.684001    0.000000
    0.849304    0.371902    0.000000
    0.755059    0.124588    0.000000
    0.187685    0.636018    0.000000
    0.356404    1.364884    0.000000
    0.609344    0.117024    0.000000
    0.393358    1.692333    0.000000
    0.531991    1.234666    0.000000
    0.138148    1.861404    0.000000
    0.857969    1.851061    0.000000
    0.874390    0.551250    0.000000
    0.887598    0.116059    0.000000
    0.836315    0.224420    0.000000
    0.292485    1.571622    0.000000
 
CELLS 104 416
3    12    13    44
3    32    40    43
3    40    32    42
3    46    29    60
3    13    33    44
3    34    28    37
3    29    46    51
3    34    37    39
3    25     4    57
3    35    39    43
3    27    28    34
3    32    12    44
3    40    35    43
3     4    26    57
3    47    46    60
3    39    37    55
3    11    32    43
3    10    11    43
3    48    30    50
3    41    48    50
3    45    58    61
3    41    50    52
3    42    32    44
3    45    47    58
3    36    41    52
3    44    33    45
3     1     8    65
3    45    33    46
3    43    39    64
3    33    14    54
3    45    46    47
3    46    33    54
3    13    14    33
3    20    21    38
3    51    46    54
3    11    12    32
3    38    21    49
3    22    30    49
3    21    22    49
3    22    23    30
3    58    48    61
3    30    23    50
3    41    42    48
3    23    24    50
3    50    24    52
3     8     9    55
3    26    27    31
3    16    17    51
3    41    40    42
3    17    18    29
3    10    43    64
3    36    40    41
3    24    25    52
3    31    35    36
3    31    27    34
3    52    25    57
3    31    34    35
3    36    35    40
3    35    34    39
3     8    55    66
3    17    29    51
3    37    28    59
3    18    19    53
3    29    18    53
3    28     0    59
3    14    15    54
3    31    36    57
3    15     2    63
3     3    20    62
3     6     7    56
3    36    52    57
3    19     3    62
3     2    16    63
3     0     6    59
3    26    31    57
3    30    48    58
3    49    30    58
3    58    47    67
3    53    38    60
3    42    44    61
3    44    45    61
3    49    58    67
3    20    38    62
3    55    37    66
3     9    10    64
3    48    42    61
3    37    56    66
3    38    49    67
3    56     7    65
3    60    38    67
3    29    53    60
3    16    51    63
3    39    55    64
3     6    56    59
3    38    53    62
3     7     1    65
3    51    54    63
3    55     9    64
3    53    19    62
3    54    15    63
3    56    37    59
3    56    65    66
3    47    60    67
3    65     8    66
 
CELL_TYPES 104
5
5
5
5
5
5
5
5
5
5
5
5
5
5
5
5
5
5
5
5
5
5
5
5
5
5
5
5
5
5
5
5
5
5
5
5
5
5
5
5
5
5
5
5
5
5
5
5
5
5
5
5
5
5
5
5
5
5
5
5
5
5
5
5
5
5
5
5
5
5
5
5
5
5
5
5
5
5
5
5
5
5
5
5
5
5
5
5
5
5
5
5
5
5
5
5
5
5
5
5
5
5
5
5
 
POINT_DATA 68
VECTORS disp float
   -0.004787
    0.000000
    0.000000
   -0.005327
    0.000000
    0.000000
   -0.000313
    0.013579
    0.000000
    0.000000
    0.014586
    0.000000
    0.000000
    0.009784
    0.000000
    0.000000
    0.000000
    0.000000
   -0.005006
    0.000000
    0.000000
   -0.005113
    0.000000
    0.000000
   -0.004714
    0.001063
    0.000000
   -0.003362
    0.002604
    0.000000
   -0.002095
    0.004506
    0.000000
   -0.001269
    0.006435
    0.000000
   -0.000842
    0.008227
    0.000000
   -0.000659
    0.009788
    0.000000
   -0.000585
    0.011180
    0.000000
   -0.000493
    0.012418
    0.000000
   -0.000104
    0.013778
    0.000000
    0.000051
    0.014033
    0.000000
    0.000119
    0.014294
    0.000000
    0.000091
    0.014500
    0.000000
    0.000000
    0.013533
    0.000000
    0.000000
    0.012532
    0.000000
    0.000000
    0.011625
    0.000000
    0.000000
    0.010846
    0.000000
    0.000000
    0.010244
    0.000000
    0.000000
    0.009878
    0.000000
   -0.001318
    0.008953
    0.000000
   -0.002727
    0.006859
    0.000000
   -0.004158
    0.003742
    0.000000
   -0.000059
    0.013272
    0.000000
   -0.000018
    0.011086
    0.000000
   -0.001195
    0.007569
    0.000000
   -0.000682
    0.007849
    0.000000
   -0.000392
    0.010842
    0.000000
   -0.002391
    0.005261
    0.000000
   -0.001232
    0.006632
    0.000000
   -0.000469
    0.008476
    0.000000
   -0.003906
    0.002703
    0.000000
   -0.000017
    0.012946
    0.000000
   -0.002388
    0.004610
    0.000000
   -0.000595
    0.007933
    0.000000
   -0.000185
    0.009382
    0.000000
   -0.000309
    0.009105
    0.000000
   -0.001403
    0.005967
    0.000000
   -0.000388
    0.009483
    0.000000
   -0.000199
    0.010904
    0.000000
   -0.000189
    0.012117
    0.000000
   -0.000097
    0.011882
    0.000000
   -0.000095
    0.010264
    0.000000
   -0.000017
    0.011981
    0.000000
   -0.000034
    0.010327
    0.000000
   -0.000178
    0.013003
    0.000000
   -0.000112
    0.009719
    0.000000
    0.000006
    0.013623
    0.000000
   -0.000361
    0.012063
    0.000000
   -0.003589
    0.002788
    0.000000
   -0.004855
    0.001068
    0.000000
   -0.000393
    0.009295
    0.000000
   -0.000063
    0.011249
    0.000000
   -0.004791
    0.001445
    0.000000
   -0.000063
    0.012765
    0.000000
   -0.000189
    0.010172
    0.000000
    0.000014
    0.013858
    0.000000
   -0.000298
    0.012933
    0.000000
   -0.002487
    0.004127
    0.000000
   -0.004978
    0.000765
    0.000000
   -0.004445
    0.001677
    0.000000
   -0.000042
    0.012313
    0.000000
 
CELL_DATA 104
SCALARS stress_x float 1
LOOKUP_TABLE default
    0.086991
  -12.667698
   -2.204239
   11.153222
    0.497904
   -0.608368
    8.571625
  -17.821552
  -40.148166
  -21.474017
    6.391248
    0.356660
  -11.677987
 -109.599864
    8.343382
   -5.237317
    0.249662
   -7.799333
    7.024479
    5.890147
    8.597435
   -0.826160
   -2.982405
    7.675757
   -7.718313
    4.789199
   14.015355
    2.694520
   -7.258756
    0.333830
    8.917649
    5.784427
    2.501145
   16.863034
    3.123006
   -4.201781
   16.280415
   14.778883
   14.982250
   12.647209
    5.030846
   11.598903
   -0.007587
    7.603693
    3.661800
   -0.621136
  -47.864811
    5.288738
   -4.462259
   13.503025
   -1.407978
  -10.155743
   -4.860545
  -23.118351
  -18.338858
  -21.637031
  -35.033675
  -21.204312
  -17.041785
    0.179041
    8.117753
   23.620082
   22.373283
   15.179135
   14.461993
    2.455024
  -34.470741
    1.822744
   21.707604
   21.533326
  -16.567761
   28.379657
    0.313693
   23.011192
  -30.529985
   11.301408
   11.260008
   11.348548
   15.170322
    3.370286
    2.521537
   14.116999
   19.781150
   -0.029937
   -8.148267
    4.585399
    2.223762
   13.950225
   13.218253
   14.518635
   13.649110
    2.655372
  -13.112821
   32.837233
   18.485315
    0.664967
    4.923901
    1.667750
   20.325794
   -0.110437
   22.343684
   17.682168
   13.463848
   -5.003850
SCALARS stress_y float 1
LOOKUP_TABLE default
  134.837960
  137.874830
  111.665171
  100.920723
  113.538489
  163.348879
  102.138384
  175.899920
    0.403443
  152.665907
  192.588154
  127.941925
  122.568523
   14.214049
   97.506702
  168.129118
  141.495458
  165.125311
   70.404414
   86.189879
  101.721249
   55.461129
  122.506608
   96.850027
   83.997136
  116.861496
   94.614528
  103.457509
  148.913395
  107.073452
  104.761746
  109.539564
  120.769265
   93.079937
  101.636520
  153.985878
   90.427558
   83.102844
   84.215926
   72.357040
   87.028221
   71.459335
   84.521762
   55.487110
   57.793514
  133.058626
   74.493220
  101.071142
  111.109689
  100.056709
  155.034000
   83.865603
   31.814509
   85.955851
   82.211149
   36.529480
  140.128129
  122.475057
  137.928714
  150.892895
  100.075935
  229.109713
   98.330215
  100.244312
  354.105672
  107.453621
   83.559750
  100.673984
   98.667922
  168.866218
   39.042117
   98.233567
  101.610715
  241.724295
   28.113845
   89.589816
   81.049968
   91.474665
   98.991412
  105.897589
  103.983679
   93.264336
   98.109091
  151.254254
  162.704133
  104.215518
  173.720284
   91.072816
  145.440965
   93.799176
   97.225710
  100.233243
  154.097583
  214.052733
   95.138995
  126.734632
  105.379377
  157.476404
  100.217154
  102.912352
  184.030544
  148.770859
   99.136250
  127.259707
SCALARS stress_t float 1
LOOKUP_TABLE default
   -9.698934
  -15.889589
  -19.832576
   -9.284771
   -9.938122
   -5.933750
   -8.517296
   -4.491781
  -23.376831
   -4.052348
  -49.119300
   -9.048415
  -17.213274
    9.776866
  -12.808290
   18.799822
   -3.671571
   -4.220596
  -19.550272
  -20.665334
  -17.029535
  -26.207117
  -21.187507
  -16.890232
  -26.075168
  -14.232269
    7.115338
  -13.540040
    1.514862
   -5.608009
  -14.037307
  -10.629358
   -7.759654
   -3.735834
   -7.986692
   -8.514152
   -3.088171
   -4.392333
   -4.659109
   -6.823615
  -21.702164
   -6.042221
  -26.419126
  -10.102069
   -7.875126
   12.175074
  -15.022390
   -3.176455
  -24.461271
   -3.913169
    6.540886
  -30.439107
  -15.541389
  -30.649110
  -26.196947
   -6.466478
  -24.722334
  -25.566055
   -6.732594
   18.329095
   -3.574580
  -27.681164
   -3.178134
   -3.591133
  -29.266743
   -4.480049
  -28.964665
   -0.940008
   -2.706023
   13.336756
  -34.691798
   -0.638288
   -0.807119
    9.531669
  -27.523899
  -15.351368
  -14.074937
  -13.097951
   -7.059088
  -18.587512
  -20.528139
  -11.121743
   -1.286333
   16.432032
    6.840380
  -22.015321
   15.191269
  -10.451219
   -2.046335
   -9.352539
   -8.382935
   -2.358671
   11.696403
  -12.542911
   -5.716498
   14.103228
   -6.020520
    9.615167
   -2.422844
   -2.298302
   24.095257
   22.611280
  -11.379931
    4.041987
SCALARS strain_x float 1
LOOKUP_TABLE default
   -0.001400
   -0.002096
   -0.001278
   -0.000470
   -0.001157
   -0.001733
   -0.000618
   -0.002760
   -0.002095
   -0.002709
   -0.001673
   -0.001314
   -0.001885
   -0.005856
   -0.000581
   -0.002024
   -0.001461
   -0.002126
   -0.000368
   -0.000591
   -0.000612
   -0.000621
   -0.001431
   -0.000609
   -0.001277
   -0.000968
   -0.000256
   -0.000937
   -0.001929
   -0.001098
   -0.000627
   -0.000840
   -0.001128
   -0.000091
   -0.000896
   -0.001823
   -0.000094
   -0.000096
   -0.000097
   -0.000095
   -0.000645
   -0.000140
   -0.000881
   -0.000182
   -0.000411
   -0.001418
   -0.003269
   -0.000777
   -0.001390
   -0.000339
   -0.001688
   -0.001403
   -0.000585
   -0.002099
   -0.001812
   -0.001507
   -0.003284
   -0.002380
   -0.002324
   -0.001562
   -0.000620
   -0.001156
    0.000141
   -0.000254
   -0.002935
   -0.000991
   -0.002666
   -0.000954
    0.000103
   -0.000637
   -0.001270
    0.000455
   -0.001042
   -0.001319
   -0.001883
   -0.000345
   -0.000258
   -0.000362
   -0.000241
   -0.000928
   -0.000952
   -0.000236
    0.000008
   -0.001577
   -0.002119
   -0.000847
   -0.001694
   -0.000222
   -0.000827
   -0.000221
   -0.000302
   -0.000906
   -0.002288
   -0.000519
   -0.000028
   -0.001286
   -0.000841
   -0.001554
    0.000015
   -0.001078
   -0.000753
   -0.000629
   -0.000331
   -0.001586
SCALARS strain_y float 1
LOOKUP_TABLE default
    0.007022
    0.007313
    0.005839
    0.005140
    0.005908
    0.008514
    0.005230
    0.009347
    0.000439
    0.008175
    0.009964
    0.006660
    0.006505
    0.001882
    0.004992
    0.008811
    0.007367
    0.008682
    0.003594
    0.004428
    0.005208
    0.002897
    0.006412
    0.004964
    0.004455
    0.006037
    0.004782
    0.005360
    0.007832
    0.005573
    0.005363
    0.005645
    0.006264
    0.004672
    0.005261
    0.008064
    0.004540
    0.004174
    0.004230
    0.003637
    0.004480
    0.003601
    0.004402
    0.002811
    0.002972
    0.006937
    0.004378
    0.005209
    0.005833
    0.005071
    0.008089
    0.004474
    0.001708
    0.004718
    0.004473
    0.002128
    0.007663
    0.006600
    0.007361
    0.007857
    0.005128
    0.011687
    0.004888
    0.005063
    0.018292
    0.005571
    0.004711
    0.005224
    0.004913
    0.008571
    0.002206
    0.004821
    0.005289
    0.012350
    0.001782
    0.004548
    0.004104
    0.004646
    0.004998
    0.005480
    0.005390
    0.004710
    0.004904
    0.007878
    0.008559
    0.005380
    0.009025
    0.004598
    0.007437
    0.004734
    0.004922
    0.005193
    0.008163
    0.010807
    0.004763
    0.006594
    0.005437
    0.008185
    0.005008
    0.005361
    0.009352
    0.007564
    0.005023
    0.006680
SCALARS strain_t float 1
LOOKUP_TABLE default
   -0.001212
   -0.001986
   -0.002479
   -0.001161
   -0.001242
   -0.000742
   -0.001065
   -0.000561
   -0.002922
   -0.000507
   -0.006140
   -0.001131
   -0.002152
    0.001222
   -0.001601
    0.002350
   -0.000459
   -0.000528
   -0.002444
   -0.002583
   -0.002129
   -0.003276
   -0.002648
   -0.002111
   -0.003259
   -0.001779
    0.000889
   -0.001693
    0.000189
   -0.000701
   -0.001755
   -0.001329
   -0.000970
   -0.000467
   -0.000998
   -0.001064
   -0.000386
   -0.000549
   -0.000582
   -0.000853
   -0.002713
   -0.000755
   -0.003302
   -0.001263
   -0.000984
    0.001522
   -0.001878
   -0.000397
   -0.003058
   -0.000489
    0.000818
   -0.003805
   -0.001943
   -0.003831
   -0.003275
   -0.000808
   -0.003090
   -0.003196
   -0.000842
    0.002291
   -0.000447
   -0.003460
   -0.000397
   -0.000449
   -0.003658
   -0.000560
   -0.003621
   -0.000118
   -0.000338
    0.001667
   -0.004336
   -0.000080
   -0.000101
    0.001191
   -0.003440
   -0.001919
   -0.001759
   -0.001637
   -0.000882
   -0.002323
   -0.002566
   -0.001390
   -0.000161
    0.002054
    0.000855
   -0.002752
    0.001899
   -0.001306
   -0.000256
   -0.001169
   -0.001048
   -0.000295
    0.001462
   -0.001568
   -0.000715
    0.001763
   -0.000753
    0.001202
   -0.000303
   -0.000287
    0.003012
    0.002826
   -0.001422
    0.000505
 
